NAME : gaussian_random67.6669.tour
COMMENT : Length = 6669
COMMENT : Found by LKH [Keld Helsgaun] Sun Jul  7 17:44:51 2024
TYPE : TOUR
DIMENSION : 67
TOUR_SECTION
1
52
2
3
23
20
17
56
12
28
50
19
54
61
34
16
31
41
33
59
11
38
65
24
27
10
51
42
45
26
29
58
44
7
5
15
21
13
53
6
9
64
39
36
35
67
48
57
4
66
22
30
55
8
63
18
37
14
43
49
25
46
32
47
40
60
62
-1
EOF
